Minimize
  obj: x0 + x1 + x2 + x3 + x4 + x5 + x6

Subject To
  c0: x0 + x1 + x2 + x6 = 40
  c1: x0 + x4 + x5 + x6 = 39
  c2: x0 + x2 + x3 + x4 + x5 + x6 = 52
  c3: x1 + x2 + x3 + x4 + x6 = 63
  c4: x0 + x1 + x2 + x4 + x5 + x6 = 57
  c5: x1 + x2 + x5 = 18
  c6: x1 + x2 + x3 + x5 + x6 = 46
  c7: x0 + x1 + x2 + x3 = 36
  c8: x1 + x2 + x3 + x5 = 30

Bounds
  x0 >= 0
  x1 >= 0
  x2 >= 0
  x3 >= 0
  x4 >= 0
  x5 >= 0
  x6 >= 0

Generals
  x0 x1 x2 x3 x4 x5 x6

End
